% Teams number
Tn = 4;
% Stadions number
Sn = 2;
% Latitudes
TLatitude = [57.63406152117422, 57.6309369709182, 57.62229710931562, 57.614758530379035];
SLatitude = [57.648210529685635, 57.59026295036296];
% Longitudes
TLongitude = [39.63467082491704, 39.63295421130155, 39.63844737487111, 39.65321025196431];
SLongitude = [39.66556986999582, 39.632007093243466];
% Stadions pricelist
SPriceList = array3d(1..Sn, 1..2, 5..23, [1100, 1100, 1100, 1100, 1100, 1100, 2200, 2200, 2200, 2200, 2200, 2200, 2200, 2200, 2200, 2200, 2200, 2200, 2200, 1100, 1100, 1100, 1100, 1100, 1100, 2200, 2200, 2200, 2200, 2200, 2200, 2200, 2200, 2200, 2200, 2200, 2200, 2200, 1000, 1000, 1000, 1000, 1000, 1000, 2300, 2300, 2300, 2300, 2300, 2300, 2300, 2300, 2300, 2300, 2300, 2300, 2300, 1000, 1000, 1000, 1000, 1000, 1000, 2300, 2300, 2300, 2300, 2300, 2300, 2300, 2300, 2300, 2300, 2300, 2300, 2300]);